0 3 3 4 1 6 8 3 1 -1 
2 6 8 -1 6 2 3 -1 4 -1 
3 0 4 2 0 -1 9 -1 -1 -1 
9 5 -1 0 6 5 2 1 6 -1 
1 9 8 5 7 3 2 6 1 -1 
8 9 8 9 8 -1 3 8 -1 -1 
0 9 1 1 1 3 1 3 4 -1 
8 2 5 -1 0 -1 -1 9 7 -1 
-1 6 7 5 6 5 5 -1 -1 -1 
8 5 5 3 8 0 5 6 2 -1 
3 8 4 3 5 7 5 6 0 -1 
1 9 4 8 0 4 -1 1 1 -1 
9 3 4 8 4 5 6 3 5 -1 
9 5 5 1 6 1 4 3 2 -1 
4 8 2 5 4 3 8 1 4 -1 
